<<<<<<<< # File generated with Atomsk by hsulan5c on 2024-09-16 23:00:10
acell    3*1
rprim     16.00000000    0.00000000    0.00000000
           0.00000000    1.00000000    0.00000000
           0.00000000    0.00000000    1.00000000
natom    80
ntypat   4
typat    1 1 1 1 1 1 1 1 1 1 1 1 2 2 2 2 2 2 2 2 2 2 2 2 2 2 2 2 3 3 3 3 3 3 3 3 3 3 3 3 3 3 3 3 3 3 3 3 3 3 3 3 3 3 3 3 3 3 3 3 3 3 3 3 3 
3 3 3 3 3 3 3 3 3 3 3 4 4 4 4
znucl    56 22 8 38
xred            0.000000   0.000000   0.010588 # Ba
            0.071429   0.000000   0.010588 # Ba
            0.142857   0.000000   0.010588 # Ba
            0.214286   0.000000   0.010588 # Ba
            0.285714   0.000000   0.010588 # Ba
            0.357143   0.000000   0.000000 # Ba # DW
            0.500000   0.000000   0.989412 # Ba
            0.571429   0.000000   0.989412 # Ba
            0.642857   0.000000   0.989412 # Ba
            0.714286   0.000000   0.989412 # Ba
            0.785714   0.000000   0.989412 # Ba
            0.857143   0.000000   0.000000 # Ba # DW
            0.035714   0.500000   0.526062 # Ti
            0.107143   0.500000   0.526062 # Ti
            0.178571   0.500000   0.526062 # Ti
            0.250000   0.500000   0.526062 # Ti
            0.321429   0.500000   0.526062 # Ti
            0.392857   0.500000   0.473938 # Ti
            0.464286   0.500000   0.473938 # Ti
            0.535714   0.500000   0.473938 # Ti
            0.607143   0.500000   0.473938 # Ti
            0.678571   0.500000   0.473938 # Ti
            0.750000   0.500000   0.473938 # Ti
            0.821429   0.500000   0.473938 # Ti
            0.892857   0.500000   0.526062 # Ti
            0.964286   0.500000   0.526062 # Ti
            0.000000   0.500000   0.491440 # O1
            0.035714   0.000000   0.491440 # O2
            0.035714   0.500000   0.980470 # O3
            0.071429   0.500000   0.491440 # O1
            0.107143   0.000000   0.491440 # O2
            0.107143   0.500000   0.980470 # O3
            0.142857   0.500000   0.491440 # O1
            0.178571   0.000000   0.491440 # O2
            0.178571   0.500000   0.980470 # O3
            0.214286   0.500000   0.491440 # O1
            0.250000   0.000000   0.491440 # O2
            0.250000   0.500000   0.980470 # O3
            0.285714   0.500000   0.491440 # O1
            0.321429   0.000000   0.491440 # O2
            0.321429   0.500000   0.980470 # O3
            0.357143   0.500000   0.500000 # O1 # DW
            0.392857   0.000000   0.508560 # O2
            0.392857   0.500000   0.019530 # O3
            0.428571   0.500000   0.508560 # O1
            0.464286   0.000000   0.508560 # O2
            0.464286   0.500000   0.019530 # O3
            0.500000   0.500000   0.508560 # O1
            0.535714   0.000000   0.508560 # O2
            0.535714   0.500000   0.019530 # O3
            0.571429   0.500000   0.508560 # O1
            0.607143   0.000000   0.508560 # O2
            0.607143   0.500000   0.019530 # O3
            0.642857   0.500000   0.508560 # O1
            0.678571   0.000000   0.508560 # O2
            0.678571   0.500000   0.019530 # O3
            0.714286   0.500000   0.508560 # O1
            0.750000   0.000000   0.508560 # O2
            0.750000   0.500000   0.019530 # O3
            0.785714   0.500000   0.508560 # O1
            0.821429   0.000000   0.508560 # O2
            0.821429   0.500000   0.019530 # O3
            0.857143   0.500000   0.500000 # O1 # DW
            0.892857   0.000000   0.491440 # O2
            0.892857   0.500000   0.980470 # O3
            0.928571   0.500000   0.491440 # O1
            0.964286   0.000000   0.491440 # O2
            0.964286   0.500000   0.980470 # O3
            0.428571   0.000000   0.989412 # Sr
            0.928571   0.000000   0.010588 # Sr
