<<<<<<<< # File generated by fraccoord.py by Lan-Tien on <class 'datetime.datetime'>
acell    3*1
rprim     14.00000000    0.00000000    0.00000000
           0.00000000    1.00000000    0.00000000
           0.00000000    0.00000000    1.00000000
natom    70
ntypat   4
typat    1 1 1 1 1 1 1 1 1 1 1 1 2 2 2 2 2 2 2 2 2 2 2 2 2 2 3 3 3 3 3 3 3 3 3 3 3 3 3 3 3 3 3 3 3 3 3 3 3 3 3 3 3 3 3 3 3 3 3 3 3 3 3 3 3 3 3 3 4 4
znucl    56 22 8 38
xred            0.000000   0.000000   0.010588 # Ba 0
            0.071429   0.000000   0.010588 # Ba 1
            0.142857   0.000000   0.010588 # Ba 2
            0.214286   0.000000   0.010588 # Ba 3
            0.285714   0.000000   0.010588 # Ba 4
            0.357143   0.000000   0.000000 # Ba 5 # DW
            0.500000   0.000000   0.989412 # Ba 7
            0.571429   0.000000   0.989412 # Ba 8
            0.642857   0.000000   0.989412 # Ba 9
            0.714286   0.000000   0.989412 # Ba 10
            0.785714   0.000000   0.989412 # Ba 11
            0.857143   0.000000   0.000000 # Ba 12 # DW
            0.035714   0.500000   0.526062 # Ti 0
            0.107143   0.500000   0.526062 # Ti 1
            0.178571   0.500000   0.526062 # Ti 2
            0.250000   0.500000   0.526062 # Ti 3
            0.321429   0.500000   0.526062 # Ti 4
            0.392857   0.500000   0.473938 # Ti 5
            0.464286   0.500000   0.473938 # Ti 6
            0.535714   0.500000   0.473938 # Ti 7
            0.607143   0.500000   0.473938 # Ti 8
            0.678571   0.500000   0.473938 # Ti 9
            0.750000   0.500000   0.473938 # Ti 10
            0.821429   0.500000   0.473938 # Ti 11
            0.892857   0.500000   0.526062 # Ti 12
            0.964286   0.500000   0.526062 # Ti 13
            0.000000   0.500000   0.491440 # O1 0
            0.035714   0.000000   0.491440 # O2 0
            0.035714   0.500000   0.980470 # O3 0
            0.071429   0.500000   0.491440 # O1 1
            0.107143   0.000000   0.491440 # O2 1
            0.107143   0.500000   0.980470 # O3 1
            0.142857   0.500000   0.491440 # O1 2
            0.178571   0.000000   0.491440 # O2 2
            0.178571   0.500000   0.980470 # O3 2
            0.214286   0.500000   0.491440 # O1 3
            0.250000   0.000000   0.491440 # O2 3
            0.250000   0.500000   0.980470 # O3 3
            0.285714   0.500000   0.491440 # O1 4
            0.321429   0.000000   0.491440 # O2 4
            0.321429   0.500000   0.980470 # O3 4
            0.357143   0.500000   0.500000 # O1 5 # DW
            0.392857   0.000000   0.508560 # O2 5
            0.392857   0.500000   0.019530 # O3 5
            0.428571   0.500000   0.508560 # O1 6
            0.464286   0.000000   0.508560 # O2 6
            0.464286   0.500000   0.019530 # O3 6
            0.500000   0.500000   0.508560 # O1 7
            0.535714   0.000000   0.508560 # O2 7
            0.535714   0.500000   0.019530 # O3 7
            0.571429   0.500000   0.508560 # O1 8
            0.607143   0.000000   0.508560 # O2 8
            0.607143   0.500000   0.019530 # O3 8
            0.642857   0.500000   0.508560 # O1 9
            0.678571   0.000000   0.508560 # O2 9
            0.678571   0.500000   0.019530 # O3 9
            0.714286   0.500000   0.508560 # O1 10
            0.750000   0.000000   0.508560 # O2 10
            0.750000   0.500000   0.019530 # O3 10
            0.785714   0.500000   0.508560 # O1 11
            0.821429   0.000000   0.508560 # O2 11
            0.821429   0.500000   0.019530 # O3 11
            0.857143   0.500000   0.500000 # O1 12 # DW
            0.892857   0.000000   0.491440 # O2 12
            0.892857   0.500000   0.980470 # O3 12
            0.928571   0.500000   0.491440 # O1 13
            0.964286   0.000000   0.491440 # O2 13
            0.964286   0.500000   0.980470 # O3 13
            0.428571   0.000000   0.989412 # Sr 6
            0.928571   0.000000   0.010588 # Sr 13
