<<<<<<<< # File generated by fraccoord.py by Lan-Tien on <class 'datetime.datetime'>
acell    3*1
rprim     16.00000000    0.00000000    0.00000000
           0.00000000    1.00000000    0.00000000
           0.00000000    0.00000000    1.00000000
natom    80
ntypat   4
typat    1 1 1 1 1 1 1 1 1 1 1 1 2 2 2 2 2 2 2 2 2 2 2 2 2 2 2 2 3 3 3 3 3 3 3 3 3 3 3 3 3 3 3 3 3 3 3 3 3 3 3 3 3 3 3 3 3 3 3 3 3 3 3 3 3 3 3 3 3 3 3 3 3 3 3 3 4 4 4 4
znucl    56 22 8 38
xred            0.000000   0.000000   0.010588 # Ba 0
            0.062500   0.000000   0.010588 # Ba 1
            0.125000   0.000000   0.010588 # Ba 2
            0.187500   0.000000   0.010588 # Ba 3
            0.250000   0.000000   0.010588 # Ba 4
            0.312500   0.000000   0.000000 # Ba 5 # DW
            0.500000   0.000000   0.989412 # Ba 8
            0.562500   0.000000   0.989412 # Ba 9
            0.625000   0.000000   0.989412 # Ba 10
            0.687500   0.000000   0.989412 # Ba 11
            0.750000   0.000000   0.000000 # Ba 12 # DW
            0.812500   0.000000   0.989412 # Ba 13
            0.031250   0.500000   0.526062 # Ti 0
            0.093750   0.500000   0.526062 # Ti 1
            0.156250   0.500000   0.526062 # Ti 2
            0.218750   0.500000   0.526062 # Ti 3
            0.281250   0.500000   0.526062 # Ti 4
            0.343750   0.500000   0.473938 # Ti 5
            0.406250   0.500000   0.473938 # Ti 6
            0.468750   0.500000   0.473938 # Ti 7
            0.531250   0.500000   0.473938 # Ti 8
            0.593750   0.500000   0.473938 # Ti 9
            0.656250   0.500000   0.473938 # Ti 10
            0.718750   0.500000   0.473938 # Ti 11
            0.781250   0.500000   0.473938 # Ti 12
            0.781250   0.500000   0.526062 # Ti 12
            0.843750   0.500000   0.526062 # Ti 13
            0.906250   0.500000   0.526062 # Ti 14
            0.968750   0.500000   0.526062 # Ti 15
            0.000000   0.500000   0.491440 # O1 0
            0.031250   0.000000   0.491440 # O2 0
            0.031250   0.500000   0.980470 # O3 0
            0.062500   0.500000   0.491440 # O1 1
            0.093750   0.000000   0.491440 # O2 1
            0.093750   0.500000   0.980470 # O3 1
            0.125000   0.500000   0.491440 # O1 2
            0.156250   0.000000   0.491440 # O2 2
            0.156250   0.500000   0.980470 # O3 2
            0.187500   0.500000   0.491440 # O1 3
            0.218750   0.000000   0.491440 # O2 3
            0.218750   0.500000   0.980470 # O3 3
            0.250000   0.500000   0.491440 # O1 4
            0.281250   0.000000   0.491440 # O2 4
            0.281250   0.500000   0.980470 # O3 4
            0.312500   0.500000   0.500000 # O1 5 # DW
            0.343750   0.000000   0.508560 # O2 5
            0.343750   0.500000   0.019530 # O3 5
            0.375000   0.500000   0.508560 # O1 6
            0.406250   0.000000   0.508560 # O2 6
            0.406250   0.500000   0.019530 # O3 6
            0.437500   0.500000   0.508560 # O1 7
            0.468750   0.000000   0.508560 # O2 7
            0.468750   0.500000   0.019530 # O3 7
            0.500000   0.500000   0.508560 # O1 8
            0.531250   0.000000   0.508560 # O2 8
            0.531250   0.500000   0.019530 # O3 8
            0.562500   0.500000   0.508560 # O1 9
            0.593750   0.000000   0.508560 # O2 9
            0.593750   0.500000   0.019530 # O3 9
            0.625000   0.500000   0.508560 # O1 10
            0.656250   0.000000   0.508560 # O2 10
            0.656250   0.500000   0.019530 # O3 10
            0.687500   0.500000   0.508560 # O1 11
            0.718750   0.000000   0.508560 # O2 11
            0.718750   0.500000   0.019530 # O3 11
            0.750000   0.500000   0.508560 # O1 12
            0.781250   0.000000   0.508560 # O2 12
            0.781250   0.500000   0.019530 # O3 12
            0.750000   0.500000   0.500000 # O1 12 # DW
            0.781250   0.000000   0.491440 # O2 12
            0.781250   0.500000   0.980470 # O3 12
            0.812500   0.500000   0.491440 # O1 13
            0.843750   0.000000   0.491440 # O2 13
            0.843750   0.500000   0.980470 # O3 13
            0.875000   0.500000   0.491440 # O1 14
            0.906250   0.000000   0.491440 # O2 14
            0.906250   0.500000   0.980470 # O3 14
            0.937500   0.500000   0.491440 # O1 15
            0.968750   0.000000   0.491440 # O2 15
            0.968750   0.500000   0.980470 # O3 15
            0.375000   0.000000   0.989412 # Sr 6
            0.437500   0.000000   0.989412 # Sr 7
            0.875000   0.000000   0.010588 # Sr 14
            0.937500   0.000000   0.010588 # Sr 15
