 # File generated with Atomsk by hsulan5c on 2024-09-16 22:27:15
acell    3*1
rprim     56.00000000    0.00000000    0.00000000
           0.00000000    4.00000000    0.00000000
           0.00000000    0.00000000    4.00000000
natom    70
ntypat   4
typat    1 1 1 1 1 1 1 1 1 1 1 1 2 2 2 2 2 2 2 2 2 2 2 2 2 2 3 3 3 3 3 3 3 3 3 3 3 3 3 3 3 3 3 3 3 3 3 3 3 3 3 3 3 3 3 3 3 3 3 3 3 3 3 3 3 3 3 3 4 4
znucl    56 22 8 38
xcart     56.00000000    4.00000000    0.04235104
           3.99999992    4.00000000    0.04235104
           7.99999984    4.00000000    0.04235104     # Ba
          11.99999976    4.00000000    0.04235104     # Ba
          16.00000024    4.00000000    0.04235104         
          20.00000016    4.00000000    0.00000100         
          28.00000000    4.00000000    3.95764900         
          31.99999992    4.00000000    3.95764900         
          35.99999984    4.00000000    3.95764900     # Ba
          39.99999976    4.00000000    3.95764900     # Ba
          44.00000024    4.00000000    3.95764900         
          48.00000016    4.00000000    3.99999896         
           2.00000024    2.00000000    2.10424648         
           6.00000016    2.00000000    2.10424648         
          10.00000008    2.00000000    2.10424648     # Ti
          14.00000000    2.00000000    2.10424648         
          17.99999992    2.00000000    2.10424648         
          21.99999984    2.00000000    1.89575352         
          25.99999976    2.00000000    1.89575352         
          30.00000024    2.00000000    1.89575352         
          34.00000016    2.00000000    1.89575352         
          38.00000008    2.00000000    1.89575352     # Ti
          42.00000000    2.00000000    1.89575352         
          45.99999992    2.00000000    1.89575352         
          49.99999984    2.00000000    2.10424648         
          53.99999976    2.00000000    2.10424648         
          56.00000000    2.00000000    1.96576184         
           2.00000024    4.00000000    1.96576184         
           2.00000024    2.00000000    3.92187880         
           3.99999992    2.00000000    1.96576184         
           6.00000016    4.00000000    1.96576184         
           6.00000016    2.00000000    3.92187880         
           7.99999984    2.00000000    1.96576184     # O 
          10.00000008    4.00000000    1.96576184     # O 
          10.00000008    2.00000000    3.92187880     # O 
          11.99999976    2.00000000    1.96576184     # O 
          14.00000000    4.00000000    1.96576184         
          14.00000000    2.00000000    3.92187880         
          16.00000024    2.00000000    1.96576184         
          17.99999992    4.00000000    1.96576184         
          17.99999992    2.00000000    3.92187880         
          20.00000016    2.00000000    2.00000184         
          21.99999984    4.00000000    2.03423812         
          21.99999984    2.00000000    0.07812124         
          24.00000008    2.00000000    2.03423812         
          25.99999976    4.00000000    2.03423812         
          25.99999976    2.00000000    0.07812124         
          28.00000000    2.00000000    2.03423812         
          30.00000024    4.00000000    2.03423812         
          30.00000024    2.00000000    0.07812124         
          31.99999992    2.00000000    2.03423812         
          34.00000016    4.00000000    2.03423812         
          34.00000016    2.00000000    0.07812124         
          35.99999984    2.00000000    2.03423812     # O 
          38.00000008    4.00000000    2.03423812     # O 
          38.00000008    2.00000000    0.07812124     # O 
          39.99999976    2.00000000    2.03423812     # O 
          42.00000000    4.00000000    2.03423812         
          42.00000000    2.00000000    0.07812124         
          44.00000024    2.00000000    2.03423812         
          45.99999992    4.00000000    2.03423812         
          45.99999992    2.00000000    0.07812124         
          48.00000016    2.00000000    1.99999812         
          49.99999984    4.00000000    1.96576184         
          49.99999984    2.00000000    3.92187880         
          52.00000008    2.00000000    1.96576184         
          53.99999976    4.00000000    1.96576184         
          53.99999976    2.00000000    3.92187880         
          24.00000008    4.00000000    3.95764900         
          52.00000008    4.00000000    0.04235104         
