 #  coordinate from Anna
acell    3*1
rprim     56.00000000    0.00000000    0.00000000
           0.00000000    4.00000000    0.00000000
           0.00000000    0.00000000    4.00000000
natom    70
ntypat   4
typat    1 1 1 1 1 1 1 1 1 1 1 1 2 2 2 2 2 2 2 2 2 2 2 2 2 2 3 3 3 3 3 3 3 3 3 3 3 3 3 3 3 3 3 3 3 3 3 3 3 3 3 3 3 3 3 3 3 3 3 3 3 3 3 3 3 3 3 3 4 4
znucl    56 22 8 38
xcart      0.00000000    0.00000000    0.04235104
           3.99999992    0.00000000    0.04235104
           7.99999984    0.00000000    0.04235104      # Ba
          11.99999976    0.00000000    0.04235104      # Ba
          16.00000024    0.00000000    0.04235104
          20.00000016    0.00000000    0.04235104
          28.00000000    0.00000000    0.04235104
          31.99999992    0.00000000    0.04235104
          35.99999984    0.00000000    0.04235104      # Ba
          39.99999976    0.00000000    0.04235104      # Ba
          44.00000024    0.00000000    0.04235104
          48.00000016    0.00000000    0.04235104
           2.00000024    2.00000000    2.10424648
           6.00000016    2.00000000    2.10424648
          10.00000008    2.00000000    2.10424648      # Ti
          14.00000000    2.00000000    2.10424648
          17.99999992    2.00000000    2.10424648
          21.99999984    2.00000000    2.10424648
          25.99999976    2.00000000    2.10424648
          30.00000024    2.00000000    2.10424648
          34.00000016    2.00000000    2.10424648
          38.00000008    2.00000000    2.10424648      # Ti
          42.00000000    2.00000000    2.10424648
          45.99999992    2.00000000    2.10424648
          49.99999984    2.00000000    2.10424648
          53.99999976    2.00000000    2.10424648
           0.00000000    2.00000000    1.96576184
           2.00000024    0.00000000    1.96576184
           2.00000024    2.00000000   -0.07812124
           3.99999992    2.00000000    1.96576184
           6.00000016    0.00000000    1.96576184
           6.00000016    2.00000000   -0.07812124
           7.99999984    2.00000000    1.96576184      # O
          10.00000008    0.00000000    1.96576184      # O
          10.00000008    2.00000000   -0.07812124      # O
          11.99999976    2.00000000    1.96576184      # O
          14.00000000    0.00000000    1.96576184
          14.00000000    2.00000000   -0.07812124
          16.00000024    2.00000000    1.96576184
          17.99999992    0.00000000    1.96576184
          17.99999992    2.00000000   -0.07812124
          20.00000016    2.00000000    1.96576184
          21.99999984    0.00000000    1.96576184
          21.99999984    2.00000000   -0.07812124
          24.00000008    2.00000000    1.96576184
          25.99999976    0.00000000    1.96576184
          25.99999976    2.00000000   -0.07812124
          28.00000000    2.00000000    1.96576184
          30.00000024    0.00000000    1.96576184
          30.00000024    2.00000000   -0.07812124
          31.99999992    2.00000000    1.96576184
          34.00000016    0.00000000    1.96576184
          34.00000016    2.00000000   -0.07812124
          35.99999984    2.00000000    1.96576184      # O
          38.00000008    0.00000000    1.96576184      # O
          38.00000008    2.00000000   -0.07812124      # O
          39.99999976    2.00000000    1.96576184      # O
          42.00000000    0.00000000    1.96576184
          42.00000000    2.00000000   -0.07812124
          44.00000024    2.00000000    1.96576184
          45.99999992    0.00000000    1.96576184
          45.99999992    2.00000000   -0.07812124
          48.00000016    2.00000000    1.96576184
          49.99999984    0.00000000    1.96576184
          49.99999984    2.00000000   -0.07812124
          52.00000008    2.00000000    1.96576184
          53.99999976    0.00000000    1.96576184
          53.99999976    2.00000000   -0.07812124
          24.00000008    0.00000000    0.04235104
          52.00000008    0.00000000    0.04235104
