 # File generated with Atomsk by hsulan5c on 2024-09-16 23:00:10
acell    3*1
rprim     16.00000000    0.00000000    0.00000000
           0.00000000    1.00000000    0.00000000
           0.00000000    0.00000000    1.00000000
natom    80
ntypat   4
typat    1 1 1 1 1 1 1 1 1 1 1 1 2 2 2 2 2 2 2 2 2 2 2 2 2 2 2 2 3 3 3 3 3 3 3 3 3 3 3 3 3 3 3 3 3 3 3 3 3 3 3 3 3 3 3 3 3 3 3 3 3 3 3 3 3 3 3 3 3 3 3 3 3 3 3 3 4 4 4 4
znucl    56 22 8 38
xred       1.00000000    1.00000000    0.01058776                   
           0.06250000    1.00000000    0.01058776                   
           0.12500000    1.00000000    0.01058776        # Ba       
           0.18750000    1.00000000    0.01058776        # Ba       
           0.25000000    1.00000000    0.01058776                   
           0.31250000    1.00000000    0.00000025                   
           0.50000000    1.00000000    0.98941225                   
           0.56250000    1.00000000    0.98941225                   
           0.62500000    1.00000000    0.98941225         # Ba      
           0.68750000    1.00000000    0.98941225         # Ba      
           0.75000000    1.00000000    0.99999974                   
           0.81250000    1.00000000    0.01058776                   
           0.03125000    0.50000000    0.52606162                   
           0.09375000    0.50000000    0.52606162                   
           0.15625000    0.50000000    0.52606162          # Ti     
           0.21875000    0.50000000    0.52606162                   
           0.28125000    0.50000000    0.52606162                   
           0.34375000    0.50000000    0.47393838                   
           0.40625000    0.50000000    0.47393838                   
           0.46875000    0.50000000    0.47393838                   
           0.53125000    0.50000000    0.47393838                   
           0.59375000    0.50000000    0.47393838                   
           0.65625000    0.50000000    0.47393838          # Ti     
           0.71875000    0.50000000    0.47393838                   
           0.78125000    0.50000000    0.52606162                   
           0.84375000    0.50000000    0.52606162                   
           0.90625000    0.50000000    0.52606162                   
           0.96875000    0.50000000    0.52606162                   
           1.00000000    0.50000000    0.49144046                   
           0.03125000    1.00000000    0.49144046                   
           0.03125000    0.50000000    0.98046970                   
           0.06250000    0.50000000    0.49144046                   
           0.09375000    1.00000000    0.49144046                   
           0.09375000    0.50000000    0.98046970                   
           0.12500000    0.50000000    0.49144046          # O      
           0.15625000    1.00000000    0.49144046          # O      
           0.15625000    0.50000000    0.98046970          # O      
           0.18750000    0.50000000    0.49144046          # O      
           0.21875000    1.00000000    0.49144046                   
           0.21875000    0.50000000    0.98046970                   
           0.25000000    0.50000000    0.49144046                   
           0.28125000    1.00000000    0.49144046                   
           0.28125000    0.50000000    0.98046970                   
           0.31250000    0.50000000    0.50000046                   
           0.34375000    1.00000000    0.50855953                   
           0.34375000    0.50000000    0.01953031                   
           0.37500000    0.50000000    0.50855953                   
           0.40625000    1.00000000    0.50855953                   
           0.40625000    0.50000000    0.01953031                   
           0.43750000    0.50000000    0.50855953                   
           0.46875000    1.00000000    0.50855953                   
           0.46875000    0.50000000    0.01953031                   
           0.50000000    0.50000000    0.50855953                   
           0.53125000    1.00000000    0.50855953                   
           0.53125000    0.50000000    0.01953031                   
           0.56250000    0.50000000    0.50855953                   
           0.59375000    1.00000000    0.50855953                   
           0.59375000    0.50000000    0.01953031                   
           0.62500000    0.50000000    0.50855953           # O     
           0.65625000    1.00000000    0.50855953           # O     
           0.65625000    0.50000000    0.01953031           # O     
           0.68750000    0.50000000    0.50855953           # O     
           0.71875000    1.00000000    0.50855953                   
           0.71875000    0.50000000    0.01953031                   
           0.75000000    0.50000000    0.49999953                   
           0.78125000    1.00000000    0.49144046                   
           0.78125000    0.50000000    0.98046970                   
           0.81250000    0.50000000    0.49144046                   
           0.84375000    1.00000000    0.49144046                   
           0.84375000    0.50000000    0.98046970                   
           0.87500000    0.50000000    0.49144046                   
           0.90625000    1.00000000    0.49144046                   
           0.90625000    0.50000000    0.98046970                   
           0.93750000    0.50000000    0.49144046                   
           0.96875000    1.00000000    0.49144046                   
           0.96875000    0.50000000    0.98046970                   
           0.37500000    1.00000000    0.98941225                   
           0.43750000    1.00000000    0.98941225                   
           0.87500000    1.00000000    0.01058776                   
           0.93750000    1.00000000    0.01058776                   
