 #  coordinate from Anna
acell    3*1
rprim     16.00000000    0.00000000    0.00000000
           0.00000000    1.00000000    0.00000000
           0.00000000    0.00000000    1.00000000
natom    80
ntypat   4
typat    1 1 1 1 1 1 1 1 1 1 1 1 2 2 2 2 2 2 2 2 2 2 2 2 2 2 2 2 3 3 3 3 3 3 3 3 3 3 3 3 3 3 3 3 3 3 3 3 3 3 3 3 3 3 3 3 3 3 3 3 3 3 3 3 3 3 3 3 3 3 3 3 3 3 3 3 4 4 4 4
znucl    56 22 8 38
xred       0.00000000    0.00000000    0.01058776                
           0.06250000    0.00000000    0.01058776                
           0.12500000    0.00000000    0.01058776       # Ba     
           0.18750000    0.00000000    0.01058776       # Ba     
           0.25000000    0.00000000    0.01058776                
           0.31250000    0.00000000    0.01058776                
           0.50000000    0.00000000    0.01058776                
           0.56250000    0.00000000    0.01058776                
           0.62500000    0.00000000    0.01058776        # Ba    
           0.68750000    0.00000000    0.01058776        # Ba    
           0.75000000    0.00000000    0.01058776                
           0.81250000    0.00000000    0.01058776                
           0.03125000    0.50000000    0.52606162                
           0.09375000    0.50000000    0.52606162                
           0.15625000    0.50000000    0.52606162         # Ti   
           0.21875000    0.50000000    0.52606162                
           0.28125000    0.50000000    0.52606162                
           0.34375000    0.50000000    0.52606162                
           0.40625000    0.50000000    0.52606162                
           0.46875000    0.50000000    0.52606162                
           0.53125000    0.50000000    0.52606162                
           0.59375000    0.50000000    0.52606162                
           0.65625000    0.50000000    0.52606162         # Ti   
           0.71875000    0.50000000    0.52606162                
           0.78125000    0.50000000    0.52606162                
           0.84375000    0.50000000    0.52606162                
           0.90625000    0.50000000    0.52606162                
           0.96875000    0.50000000    0.52606162                
           0.00000000    0.50000000    0.49144046                
           0.03125000    0.00000000    0.49144046                
           0.03125000    0.50000000   -0.01953031                
           0.06250000    0.50000000    0.49144046                
           0.09375000    0.00000000    0.49144046                
           0.09375000    0.50000000   -0.01953031                
           0.12500000    0.50000000    0.49144046         # O    
           0.15625000    0.00000000    0.49144046         # O    
           0.15625000    0.50000000   -0.01953031         # O    
           0.18750000    0.50000000    0.49144046         # O    
           0.21875000    0.00000000    0.49144046                
           0.21875000    0.50000000   -0.01953031                
           0.25000000    0.50000000    0.49144046                
           0.28125000    0.00000000    0.49144046                
           0.28125000    0.50000000   -0.01953031                
           0.31250000    0.50000000    0.49144046                
           0.34375000    0.00000000    0.49144046                
           0.34375000    0.50000000   -0.01953031                
           0.37500000    0.50000000    0.49144046                
           0.40625000    0.00000000    0.49144046                
           0.40625000    0.50000000   -0.01953031                
           0.43750000    0.50000000    0.49144046                
           0.46875000    0.00000000    0.49144046                
           0.46875000    0.50000000   -0.01953031                
           0.50000000    0.50000000    0.49144046                
           0.53125000    0.00000000    0.49144046                
           0.53125000    0.50000000   -0.01953031                
           0.56250000    0.50000000    0.49144046                
           0.59375000    0.00000000    0.49144046                
           0.59375000    0.50000000   -0.01953031                
           0.62500000    0.50000000    0.49144046          # O   
           0.65625000    0.00000000    0.49144046          # O   
           0.65625000    0.50000000   -0.01953031          # O   
           0.68750000    0.50000000    0.49144046          # O   
           0.71875000    0.00000000    0.49144046                
           0.71875000    0.50000000   -0.01953031                
           0.75000000    0.50000000    0.49144046                
           0.78125000    0.00000000    0.49144046                
           0.78125000    0.50000000   -0.01953031                
           0.81250000    0.50000000    0.49144046                
           0.84375000    0.00000000    0.49144046                
           0.84375000    0.50000000   -0.01953031                
           0.87500000    0.50000000    0.49144046                
           0.90625000    0.00000000    0.49144046                
           0.90625000    0.50000000   -0.01953031                
           0.93750000    0.50000000    0.49144046                
           0.96875000    0.00000000    0.49144046                
           0.96875000    0.50000000   -0.01953031                
           0.37500000    0.00000000    0.01058776                
           0.43750000    0.00000000    0.01058776                
           0.87500000    0.00000000    0.01058776                
           0.93750000    0.00000000    0.01058776                
