 #  coordinate from Anna
acell    3*1
rprim     72.00000000    0.00000000    0.00000000
           0.00000000    4.00000000    0.00000000
           0.00000000    0.00000000    4.00000000
natom    90
ntypat   4
typat    1 1 1 1 1 1 1 1 1 1 1 1 2 2 2 2 2 2 2 2 2 2 2 2 2 2 2 2 2 2 3 3 3 3 3 3 3 3 3 3 3 3 3 3 3 3 3 3 3 3 3 3 3 3 3 3 3 3 3 3 3 3 3 3 3 3 3 3 3 3 3 3 3 3 3 3 3 3 3 3 3 3 3 3 4 4 4 4 4 4
znucl    56 22 8 38
xcart      0.00000000    0.00000000    0.04235104
           4.00000032    0.00000000    0.04235104
           7.99999992    0.00000000    0.04235104      # Ba
          12.00000024    0.00000000    0.04235104      # Ba
          15.99999984    0.00000000    0.04235104
          20.00000016    0.00000000    0.04235104
          36.00000000    0.00000000    0.04235104
          40.00000032    0.00000000    0.04235104
          43.99999992    0.00000000    0.04235104      # Ba
          48.00000024    0.00000000    0.04235104      # Ba
          51.99999984    0.00000000    0.04235104
          56.00000016    0.00000000    0.04235104
           2.00000016    2.00000000    2.10424648
           5.99999976    2.00000000    2.10424648
          10.00000008    2.00000000    2.10424648      # Ti
          13.99999968    2.00000000    2.10424648
          18.00000000    2.00000000    2.10424648
          22.00000032    2.00000000    2.10424648
          25.99999992    2.00000000    2.10424648
          30.00000024    2.00000000    2.10424648
          33.99999984    2.00000000    2.10424648
          38.00000016    2.00000000    2.10424648
          41.99999976    2.00000000    2.10424648
          46.00000008    2.00000000    2.10424648       # Ti
          49.99999968    2.00000000    2.10424648
          54.00000000    2.00000000    2.10424648
          58.00000032    2.00000000    2.10424648
          61.99999992    2.00000000    2.10424648
          66.00000024    2.00000000    2.10424648
          69.99999984    2.00000000    2.10424648
           0.00000000    2.00000000    1.96576184
           2.00000016    0.00000000    1.96576184
           2.00000016    2.00000000   -0.07812124
           4.00000032    2.00000000    1.96576184
           5.99999976    0.00000000    1.96576184
           5.99999976    2.00000000   -0.07812124
           7.99999992    2.00000000    1.96576184        # O 
          10.00000008    0.00000000    1.96576184        # O 
          10.00000008    2.00000000   -0.07812124        # O     
          12.00000024    2.00000000    1.96576184        # O 
          13.99999968    0.00000000    1.96576184
          13.99999968    2.00000000   -0.07812124
          15.99999984    2.00000000    1.96576184
          18.00000000    0.00000000    1.96576184
          18.00000000    2.00000000   -0.07812124
          20.00000016    2.00000000    1.96576184
          22.00000032    0.00000000    1.96576184
          22.00000032    2.00000000   -0.07812124
          23.99999976    2.00000000    1.96576184
          25.99999992    0.00000000    1.96576184
          25.99999992    2.00000000   -0.07812124
          28.00000008    2.00000000    1.96576184
          30.00000024    0.00000000    1.96576184
          30.00000024    2.00000000   -0.07812124
          31.99999968    2.00000000    1.96576184
          33.99999984    0.00000000    1.96576184
          33.99999984    2.00000000   -0.07812124
          36.00000000    2.00000000    1.96576184
          38.00000016    0.00000000    1.96576184
          38.00000016    2.00000000   -0.07812124
          40.00000032    2.00000000    1.96576184
          41.99999976    0.00000000    1.96576184
          41.99999976    2.00000000   -0.07812124
          43.99999992    2.00000000    1.96576184        # O
          46.00000008    0.00000000    1.96576184        # O
          46.00000008    2.00000000   -0.07812124        # O
          48.00000024    2.00000000    1.96576184        # O
          49.99999968    0.00000000    1.96576184
          49.99999968    2.00000000   -0.07812124
          51.99999984    2.00000000    1.96576184
          54.00000000    0.00000000    1.96576184
          54.00000000    2.00000000   -0.07812124
          56.00000016    2.00000000    1.96576184
          58.00000032    0.00000000    1.96576184
          58.00000032    2.00000000   -0.07812124
          59.99999976    2.00000000    1.96576184
          61.99999992    0.00000000    1.96576184
          61.99999992    2.00000000   -0.07812124
          64.00000008    2.00000000    1.96576184
          66.00000024    0.00000000    1.96576184
          66.00000024    2.00000000   -0.07812124
          67.99999968    2.00000000    1.96576184
          69.99999984    0.00000000    1.96576184
          69.99999984    2.00000000   -0.07812124
          23.99999976    0.00000000    0.04235104
          28.00000008    0.00000000    0.04235104
          31.99999968    0.00000000    0.04235104
          59.99999976    0.00000000    0.04235104
          64.00000008    0.00000000    0.04235104
          67.99999968    0.00000000    0.04235104
