 #  coordinate from Anna
acell    3*1
rprim     18.00000000    0.00000000    0.00000000
           0.00000000    1.00000000    0.00000000
           0.00000000    0.00000000    1.00000000
natom    90
ntypat   4
typat    1 1 1 1 1 1 1 1 1 1 1 1 2 2 2 2 2 2 2 2 2 2 2 2 2 2 2 2 2 2 3 3 3 3 3 3 3 3 3 3 3 3 3 3 3 3 3 3 3 3 3 3 3 3 3 3 3 3 3 3 3 3 3 3 3 3 3 3 3 3 3 3 3 3 3 3 3 3 3 3 3 3 3 3 4 4 4 4 4 4
znucl    56 22 8 38
xred       0.00000000    0.00000000    0.01058776             
           0.05555556    0.00000000    0.01058776             
           0.11111111    0.00000000    0.01058776      # Ba   
           0.16666667    0.00000000    0.01058776      # Ba   
           0.22222222    0.00000000    0.01058776             
           0.27777778    0.00000000    0.01058776             
           0.50000000    0.00000000    0.01058776             
           0.55555556    0.00000000    0.01058776             
           0.61111111    0.00000000    0.01058776      # Ba   
           0.66666667    0.00000000    0.01058776      # Ba   
           0.72222222    0.00000000    0.01058776             
           0.77777778    0.00000000    0.01058776             
           0.02777778    0.50000000    0.52606162             
           0.08333333    0.50000000    0.52606162             
           0.13888889    0.50000000    0.52606162      # Ti   
           0.19444444    0.50000000    0.52606162             
           0.25000000    0.50000000    0.52606162             
           0.30555556    0.50000000    0.52606162             
           0.36111111    0.50000000    0.52606162             
           0.41666667    0.50000000    0.52606162             
           0.47222222    0.50000000    0.52606162             
           0.52777778    0.50000000    0.52606162             
           0.58333333    0.50000000    0.52606162             
           0.63888889    0.50000000    0.52606162       # Ti  
           0.69444444    0.50000000    0.52606162             
           0.75000000    0.50000000    0.52606162             
           0.80555556    0.50000000    0.52606162             
           0.86111111    0.50000000    0.52606162             
           0.91666667    0.50000000    0.52606162             
           0.97222222    0.50000000    0.52606162             
           0.00000000    0.50000000    0.49144046             
           0.02777778    0.00000000    0.49144046             
           0.02777778    0.50000000   -0.01953031             
           0.05555556    0.50000000    0.49144046             
           0.08333333    0.00000000    0.49144046             
           0.08333333    0.50000000   -0.01953031             
           0.11111111    0.50000000    0.49144046        # O  
           0.13888889    0.00000000    0.49144046        # O  
           0.13888889    0.50000000   -0.01953031        # O  
           0.16666667    0.50000000    0.49144046        # O  
           0.19444444    0.00000000    0.49144046             
           0.19444444    0.50000000   -0.01953031             
           0.22222222    0.50000000    0.49144046             
           0.25000000    0.00000000    0.49144046             
           0.25000000    0.50000000   -0.01953031             
           0.27777778    0.50000000    0.49144046             
           0.30555556    0.00000000    0.49144046             
           0.30555556    0.50000000   -0.01953031             
           0.33333333    0.50000000    0.49144046             
           0.36111111    0.00000000    0.49144046             
           0.36111111    0.50000000   -0.01953031             
           0.38888889    0.50000000    0.49144046             
           0.41666667    0.00000000    0.49144046             
           0.41666667    0.50000000   -0.01953031             
           0.44444444    0.50000000    0.49144046             
           0.47222222    0.00000000    0.49144046             
           0.47222222    0.50000000   -0.01953031             
           0.50000000    0.50000000    0.49144046             
           0.52777778    0.00000000    0.49144046             
           0.52777778    0.50000000   -0.01953031             
           0.55555556    0.50000000    0.49144046             
           0.58333333    0.00000000    0.49144046             
           0.58333333    0.50000000   -0.01953031             
           0.61111111    0.50000000    0.49144046        # O  
           0.63888889    0.00000000    0.49144046        # O  
           0.63888889    0.50000000   -0.01953031        # O  
           0.66666667    0.50000000    0.49144046        # O  
           0.69444444    0.00000000    0.49144046             
           0.69444444    0.50000000   -0.01953031             
           0.72222222    0.50000000    0.49144046             
           0.75000000    0.00000000    0.49144046             
           0.75000000    0.50000000   -0.01953031             
           0.77777778    0.50000000    0.49144046             
           0.80555556    0.00000000    0.49144046             
           0.80555556    0.50000000   -0.01953031             
           0.83333333    0.50000000    0.49144046             
           0.86111111    0.00000000    0.49144046             
           0.86111111    0.50000000   -0.01953031             
           0.88888889    0.50000000    0.49144046             
           0.91666667    0.00000000    0.49144046             
           0.91666667    0.50000000   -0.01953031             
           0.94444444    0.50000000    0.49144046             
           0.97222222    0.00000000    0.49144046             
           0.97222222    0.50000000   -0.01953031             
           0.33333333    0.00000000    0.01058776             
           0.38888889    0.00000000    0.01058776             
           0.44444444    0.00000000    0.01058776             
           0.83333333    0.00000000    0.01058776             
           0.88888889    0.00000000    0.01058776             
           0.94444444    0.00000000    0.01058776             
