 # File generated with Atomsk by hsulan5c on 2024-09-16 22:27:17
acell    3*1
rprim     72.00000000    0.00000000    0.00000000
           0.00000000    4.00000000    0.00000000
           0.00000000    0.00000000    4.00000000
natom    90
ntypat   4
typat    1 1 1 1 1 1 1 1 1 1 1 1 2 2 2 2 2 2 2 2 2 2 2 2 2 2 2 2 2 2 3 3 3 3 3 3 3 3 3 3 3 3 3 3 3 3 3 3 3 3 3 3 3 3 3 3 3 3 3 3 3 3 3 3 3 3 3 3 3 3 3 3 3 3 3 3 3 3 3 3 3 3 3 3 4 4 4 4 4 4
znucl    56 22 8 38
xcart     72.00000000    4.00000000    0.04235104                  
           4.00000032    4.00000000    0.04235104                  
           7.99999992    4.00000000    0.04235104       # Ba       
          12.00000024    4.00000000    0.04235104       # Ba       
          15.99999984    4.00000000    0.04235104                  
          20.00000016    4.00000000    0.00000100                  
          36.00000000    4.00000000    3.95764900                  
          40.00000032    4.00000000    3.95764900                  
          43.99999992    4.00000000    3.95764900       # Ba       
          48.00000024    4.00000000    3.99999896       # Ba       
          51.99999984    4.00000000    0.04235104                  
          56.00000016    4.00000000    0.04235104                  
           2.00000016    2.00000000    2.10424648                  
           5.99999976    2.00000000    2.10424648                  
          10.00000008    2.00000000    2.10424648       # Ti       
          13.99999968    2.00000000    2.10424648                  
          18.00000000    2.00000000    2.10424648                  
          22.00000032    2.00000000    1.89575352                  
          25.99999992    2.00000000    1.89575352                  
          30.00000024    2.00000000    1.89575352                  
          33.99999984    2.00000000    1.89575352                  
          38.00000016    2.00000000    1.89575352                  
          41.99999976    2.00000000    1.89575352                  
          46.00000008    2.00000000    1.89575352        # Ti      
          49.99999968    2.00000000    2.10424648                  
          54.00000000    2.00000000    2.10424648                  
          58.00000032    2.00000000    2.10424648                  
          61.99999992    2.00000000    2.10424648                  
          66.00000024    2.00000000    2.10424648                  
          69.99999984    2.00000000    2.10424648                  
          72.00000000    2.00000000    1.96576184                  
           2.00000016    4.00000000    1.96576184                  
           2.00000016    2.00000000    3.92187880                  
           4.00000032    2.00000000    1.96576184                  
           5.99999976    4.00000000    1.96576184                  
           5.99999976    2.00000000    3.92187880                  
           7.99999992    2.00000000    1.96576184         # O      
          10.00000008    4.00000000    1.96576184         # O      
          10.00000008    2.00000000    3.92187880         # O      
          12.00000024    2.00000000    1.96576184         # O      
          13.99999968    4.00000000    1.96576184                  
          13.99999968    2.00000000    3.92187880                  
          15.99999984    2.00000000    1.96576184                  
          18.00000000    4.00000000    1.96576184                  
          18.00000000    2.00000000    3.92187880                  
          20.00000016    2.00000000    2.00000184                  
          22.00000032    4.00000000    2.03423812                  
          22.00000032    2.00000000    0.07812124                  
          23.99999976    2.00000000    2.03423812                  
          25.99999992    4.00000000    2.03423812                  
          25.99999992    2.00000000    0.07812124                  
          28.00000008    2.00000000    2.03423812                  
          30.00000024    4.00000000    2.03423812                  
          30.00000024    2.00000000    0.07812124                  
          31.99999968    2.00000000    2.03423812                  
          33.99999984    4.00000000    2.03423812                  
          33.99999984    2.00000000    0.07812124                  
          36.00000000    2.00000000    2.03423812                  
          38.00000016    4.00000000    2.03423812                  
          38.00000016    2.00000000    0.07812124                  
          40.00000032    2.00000000    2.03423812                  
          41.99999976    4.00000000    2.03423812                  
          41.99999976    2.00000000    0.07812124                  
          43.99999992    2.00000000    2.03423812         # O      
          46.00000008    4.00000000    2.03423812         # O      
          46.00000008    2.00000000    0.07812124         # O      
          48.00000024    2.00000000    1.99999812         # O      
          49.99999968    4.00000000    1.96576184                  
          49.99999968    2.00000000    3.92187880                  
          51.99999984    2.00000000    1.96576184                  
          54.00000000    4.00000000    1.96576184                  
          54.00000000    2.00000000    3.92187880                  
          56.00000016    2.00000000    1.96576184                  
          58.00000032    4.00000000    1.96576184                  
          58.00000032    2.00000000    3.92187880                  
          59.99999976    2.00000000    1.96576184                  
          61.99999992    4.00000000    1.96576184                  
          61.99999992    2.00000000    3.92187880                  
          64.00000008    2.00000000    1.96576184                  
          66.00000024    4.00000000    1.96576184                  
          66.00000024    2.00000000    3.92187880                  
          67.99999968    2.00000000    1.96576184                  
          69.99999984    4.00000000    1.96576184                  
          69.99999984    2.00000000    3.92187880                  
          23.99999976    4.00000000    3.95764900                  
          28.00000008    4.00000000    3.95764900                  
          31.99999968    4.00000000    3.95764900                  
          59.99999976    4.00000000    0.04235104                  
          64.00000008    4.00000000    0.04235104                  
          67.99999968    4.00000000    0.04235104                  
