 #  coordinate from Anna
acell    3*1
rprim     20.00000000    0.00000000    0.00000000
           0.00000000    1.00000000    0.00000000
           0.00000000    0.00000000    1.00000000
natom    100
ntypat   4
typat    1 1 1 1 1 1 1 1 1 1 1 1 2 2 2 2 2 2 2 2 2 2 2 2 2 2 2 2 2 2 2 2 3 3 3 3 3 3 3 3 3 3 3 3 3 3 3 3 3 3 3 3 3 3 3 3 3 3 3 3 3 3 3 3 3 3 3 3 3 3 3 3 3 3 3 3 3 3 3 3 3 3 3 3 3 3 3 3 3 3 3 3 4 4 4 4 4 4 4 4
znucl    56 22 8 38
xred       0.00000000    0.00000000    0.01058776                
           0.05000000    0.00000000    0.01058776                
           0.10000000    0.00000000    0.01058776      # Ba      
           0.15000000    0.00000000    0.01058776      # Ba      
           0.20000000    0.00000000    0.01058776                
           0.25000000    0.00000000    0.01058776                
           0.50000000    0.00000000    0.01058776                
           0.55000000    0.00000000    0.01058776                
           0.60000000    0.00000000    0.01058776      # Ba      
           0.65000000    0.00000000    0.01058776      # Ba      
           0.70000000    0.00000000    0.01058776                
           0.75000000    0.00000000    0.01058776                
           0.02500000    0.50000000    0.52606162                
           0.07500000    0.50000000    0.52606162                
           0.12500000    0.50000000    0.52606162        # Ti    
           0.17500000    0.50000000    0.52606162                
           0.22500000    0.50000000    0.52606162                
           0.27500000    0.50000000    0.52606162                
           0.32500000    0.50000000    0.52606162                
           0.37500000    0.50000000    0.52606162                
           0.42500000    0.50000000    0.52606162                
           0.47500000    0.50000000    0.52606162                
           0.52500000    0.50000000    0.52606162                
           0.57500000    0.50000000    0.52606162                
           0.62500000    0.50000000    0.52606162         # Ti   
           0.67500000    0.50000000    0.52606162                
           0.72500000    0.50000000    0.52606162                
           0.77500000    0.50000000    0.52606162                
           0.82500000    0.50000000    0.52606162                
           0.87500000    0.50000000    0.52606162                
           0.92500000    0.50000000    0.52606162                
           0.97500000    0.50000000    0.52606162                
           0.00000000    0.50000000    0.49144046                
           0.02500000    0.00000000    0.49144046                
           0.02500000    0.50000000   -0.01953031                
           0.05000000    0.50000000    0.49144046                
           0.07500000    0.00000000    0.49144046                
           0.07500000    0.50000000   -0.01953031                
           0.10000000    0.50000000    0.49144046             # O
           0.12500000    0.00000000    0.49144046             # O
           0.12500000    0.50000000   -0.01953031             # O
           0.15000000    0.50000000    0.49144046             # O
           0.17500000    0.00000000    0.49144046                
           0.17500000    0.50000000   -0.01953031                
           0.20000000    0.50000000    0.49144046                
           0.22500000    0.00000000    0.49144046                
           0.22500000    0.50000000   -0.01953031                
           0.25000000    0.50000000    0.49144046                
           0.27500000    0.00000000    0.49144046                
           0.27500000    0.50000000   -0.01953031                
           0.30000000    0.50000000    0.49144046                
           0.32500000    0.00000000    0.49144046                
           0.32500000    0.50000000   -0.01953031                
           0.35000000    0.50000000    0.49144046                
           0.37500000    0.00000000    0.49144046                
           0.37500000    0.50000000   -0.01953031                
           0.40000000    0.50000000    0.49144046                
           0.42500000    0.00000000    0.49144046                
           0.42500000    0.50000000   -0.01953031                
           0.45000000    0.50000000    0.49144046                
           0.47500000    0.00000000    0.49144046                
           0.47500000    0.50000000   -0.01953031                
           0.50000000    0.50000000    0.49144046                
           0.52500000    0.00000000    0.49144046                
           0.52500000    0.50000000   -0.01953031                
           0.55000000    0.50000000    0.49144046                
           0.57500000    0.00000000    0.49144046                
           0.57500000    0.50000000   -0.01953031                
           0.60000000    0.50000000    0.49144046            # O 
           0.62500000    0.00000000    0.49144046            # O 
           0.62500000    0.50000000   -0.01953031            # O 
           0.65000000    0.50000000    0.49144046            # O 
           0.67500000    0.00000000    0.49144046                
           0.67500000    0.50000000   -0.01953031                
           0.70000000    0.50000000    0.49144046                
           0.72500000    0.00000000    0.49144046                
           0.72500000    0.50000000   -0.01953031                
           0.75000000    0.50000000    0.49144046                
           0.77500000    0.00000000    0.49144046                
           0.77500000    0.50000000   -0.01953031                
           0.80000000    0.50000000    0.49144046                
           0.82500000    0.00000000    0.49144046                
           0.82500000    0.50000000   -0.01953031                
           0.85000000    0.50000000    0.49144046                
           0.87500000    0.00000000    0.49144046                
           0.87500000    0.50000000   -0.01953031                
           0.90000000    0.50000000    0.49144046                
           0.92500000    0.00000000    0.49144046                
           0.92500000    0.50000000   -0.01953031                
           0.95000000    0.50000000    0.49144046                
           0.97500000    0.00000000    0.49144046                
           0.97500000    0.50000000   -0.01953031                
           0.30000000    0.00000000    0.01058776                
           0.35000000    0.00000000    0.01058776                
           0.40000000    0.00000000    0.01058776                
           0.45000000    0.00000000    0.01058776                
           0.80000000    0.00000000    0.01058776                
           0.85000000    0.00000000    0.01058776                
           0.90000000    0.00000000    0.01058776                
           0.95000000    0.00000000    0.01058776                
