 # File generated with Atomsk by hsulan5c on 2024-09-16 22:27:17
acell    3*1
rprim     80.00000000    0.00000000    0.00000000
           0.00000000    4.00000000    0.00000000
           0.00000000    0.00000000    4.00000000
natom    100
ntypat   4
typat    1 1 1 1 1 1 1 1 1 1 1 1 2 2 2 2 2 2 2 2 2 2 2 2 2 2 2 2 2 2 2 2 3 3 3 3 3 3 3 3 3 3 3 3 3 3 3 3 3 3 3 3 3 3 3 3 3 3 3 3 3 3 3 3 3 3 3 3 3 3 3 3 3 3 3 3 3 3 3 3 3 3 3 3 3 3 3 3 3 3 3 3 4 4 4 4 4 4 4 4
znucl    56 22 8 38
xcart     80.00000000    4.00000000    0.04235104
           4.00000000    4.00000000    0.04235104
           8.00000000    4.00000000    0.04235104        # Ba       
          12.00000000    4.00000000    0.04235104        # Ba       
          16.00000000    4.00000000    0.04235104                   
          20.00000000    4.00000000    0.00000100                   
          40.00000000    4.00000000    3.95764900                   
          44.00000000    4.00000000    3.95764900                   
          48.00000000    4.00000000    3.99999896        # Ba       
          52.00000000    4.00000000    0.04235104        # Ba       
          56.00000000    4.00000000    0.04235104                   
          60.00000000    4.00000000    0.04235104                   
           2.00000000    2.00000000    2.10424648                   
           6.00000000    2.00000000    2.10424648                   
          10.00000000    2.00000000    2.10424648          # Ti     
          14.00000000    2.00000000    2.10424648                   
          18.00000000    2.00000000    2.10424648                   
          22.00000000    2.00000000    1.89575352                   
          26.00000000    2.00000000    1.89575352                   
          30.00000000    2.00000000    1.89575352                   
          34.00000000    2.00000000    1.89575352                   
          38.00000000    2.00000000    1.89575352                   
          42.00000000    2.00000000    1.89575352                   
          46.00000000    2.00000000    1.89575352                   
          50.00000000    2.00000000    2.10424648           # Ti    
          54.00000000    2.00000000    2.10424648                   
          58.00000000    2.00000000    2.10424648                   
          62.00000000    2.00000000    2.10424648                   
          66.00000000    2.00000000    2.10424648                   
          70.00000000    2.00000000    2.10424648                   
          74.00000000    2.00000000    2.10424648                   
          78.00000000    2.00000000    2.10424648                   
          80.00000000    2.00000000    1.96576184                   
           2.00000000    4.00000000    1.96576184                   
           2.00000000    2.00000000    3.92187880                   
           4.00000000    2.00000000    1.96576184                   
           6.00000000    4.00000000    1.96576184                   
           6.00000000    2.00000000    3.92187880                   
           8.00000000    2.00000000    1.96576184               # O 
          10.00000000    4.00000000    1.96576184               # O 
          10.00000000    2.00000000    3.92187880               # O 
          12.00000000    2.00000000    1.96576184               # O 
          14.00000000    4.00000000    1.96576184                   
          14.00000000    2.00000000    3.92187880                   
          16.00000000    2.00000000    1.96576184                   
          18.00000000    4.00000000    1.96576184                   
          18.00000000    2.00000000    3.92187880                   
          20.00000000    2.00000000    2.00000184                   
          22.00000000    4.00000000    2.03423812                   
          22.00000000    2.00000000    0.07812124                   
          24.00000000    2.00000000    2.03423812                   
          26.00000000    4.00000000    2.03423812                   
          26.00000000    2.00000000    0.07812124                   
          28.00000000    2.00000000    2.03423812                   
          30.00000000    4.00000000    2.03423812                   
          30.00000000    2.00000000    0.07812124                   
          32.00000000    2.00000000    2.03423812                   
          34.00000000    4.00000000    2.03423812                   
          34.00000000    2.00000000    0.07812124                   
          36.00000000    2.00000000    2.03423812                   
          38.00000000    4.00000000    2.03423812                   
          38.00000000    2.00000000    0.07812124                   
          40.00000000    2.00000000    2.03423812                   
          42.00000000    4.00000000    2.03423812                   
          42.00000000    2.00000000    0.07812124                   
          44.00000000    2.00000000    2.03423812                   
          46.00000000    4.00000000    2.03423812                   
          46.00000000    2.00000000    0.07812124                   
          48.00000000    2.00000000    1.99999812              # O  
          50.00000000    4.00000000    1.96576184              # O  
          50.00000000    2.00000000    3.92187880              # O  
          52.00000000    2.00000000    1.96576184              # O  
          54.00000000    4.00000000    1.96576184                   
          54.00000000    2.00000000    3.92187880                   
          56.00000000    2.00000000    1.96576184                   
          58.00000000    4.00000000    1.96576184                   
          58.00000000    2.00000000    3.92187880                   
          60.00000000    2.00000000    1.96576184                   
          62.00000000    4.00000000    1.96576184                   
          62.00000000    2.00000000    3.92187880                   
          64.00000000    2.00000000    1.96576184                   
          66.00000000    4.00000000    1.96576184                   
          66.00000000    2.00000000    3.92187880                   
          68.00000000    2.00000000    1.96576184                   
          70.00000000    4.00000000    1.96576184                   
          70.00000000    2.00000000    3.92187880                   
          72.00000000    2.00000000    1.96576184                   
          74.00000000    4.00000000    1.96576184                   
          74.00000000    2.00000000    3.92187880                   
          76.00000000    2.00000000    1.96576184                   
          78.00000000    4.00000000    1.96576184                   
          78.00000000    2.00000000    3.92187880                   
          24.00000000    4.00000000    3.95764900                   
          28.00000000    4.00000000    3.95764900                   
          32.00000000    4.00000000    3.95764900                   
          36.00000000    4.00000000    3.95764900                   
          64.00000000    4.00000000    0.04235104                   
          68.00000000    4.00000000    0.04235104                   
          72.00000000    4.00000000    0.04235104                   
          76.00000000    4.00000000    0.04235104                   
